sat
(= |goto_symex::&92;guard#1| true)
(= |goto_symex::&92;guard#2| true)
(= |goto_symex::&92;guard#3| true)
(= |goto_symex::&92;guard#4| false)
(= |memory_model::choice_rf_1_35_0_11_T_0| false)
(= |memory_model::choice_rf_1_35_2_38_T_1| true)
(= |memory_model::choice_rf_1_35_3_16_T_2| false)
(= |memory_model::choice_rf_2_37_0_11_T_3| false)
(= |memory_model::choice_rf_2_37_1_36_T_4| false)
(= |memory_model::choice_rf_2_37_3_16_T_5| true)
(= |memory_model::choice_rf_3_15_0_11_T_6| true)
(= |memory_model::choice_rf_3_15_1_36_T_7| false)
(= |memory_model::choice_rf_3_15_2_38_T_8| false)
(= |memory_model::choice_rf_0_59_0_9_T_9| false)
(= |memory_model::choice_rf_0_59_0_55_T_10| true)
(= |memory_model::choice_rf_0_64_0_9_T_11| false)
(= |memory_model::choice_rf_0_64_0_55_T_12| false)
(= |memory_model::choice_rf_0_64_0_60_T_13| true)
(= |memory_model::choice_rf_0_71_0_36_F_14| false)
(= |memory_model::choice_rf_0_71_1_32_F_15| true)
(= |memory_model::choice_rf_0_71_2_14_F_16| false)
(= |memory_model::choice_rf_0_71_2_34_F_17| false)
(= |memory_model::choice_rf_0_71_3_12_F_18| false)
(= |memory_model::choice_rf_1_21_0_36_F_19| false)
(= |memory_model::choice_rf_1_21_0_82_F_20| false)
(= |memory_model::choice_rf_1_21_2_14_F_21| false)
(= |memory_model::choice_rf_1_21_2_34_F_22| true)
(= |memory_model::choice_rf_1_21_3_12_F_23| false)
(= |memory_model::choice_rf_2_6_0_36_F_24| true)
(= |memory_model::choice_rf_2_6_0_82_F_25| false)
(= |memory_model::choice_rf_2_6_1_32_F_26| false)
(= |memory_model::choice_rf_2_6_3_12_F_27| false)
(= |memory_model::choice_rf_2_23_0_36_F_28| false)
(= |memory_model::choice_rf_2_23_0_82_F_29| false)
(= |memory_model::choice_rf_2_23_1_32_F_30| false)
(= |memory_model::choice_rf_2_23_2_14_F_31| false)
(= |memory_model::choice_rf_2_23_3_12_F_32| true)
(= |memory_model::choice_rf_3_1_0_36_F_33| false)
(= |memory_model::choice_rf_3_1_0_82_F_34| false)
(= |memory_model::choice_rf_3_1_1_32_F_35| false)
(= |memory_model::choice_rf_3_1_2_14_F_36| true)
(= |memory_model::choice_rf_3_1_2_34_F_37| false)
(= |memory_model::choice_rf_0_68_0_12_F_38| false)
(= |memory_model::choice_rf_0_68_1_34_F_39| false)
(= |memory_model::choice_rf_0_68_2_36_F_40| true)
(= |memory_model::choice_rf_0_68_3_14_F_41| false)
(= |memory_model::choice_rf_1_33_0_12_F_42| false)
(= |memory_model::choice_rf_1_33_2_36_F_43| false)
(= |memory_model::choice_rf_1_33_3_14_F_44| true)
(= |memory_model::choice_rf_2_35_0_12_F_45| false)
(= |memory_model::choice_rf_2_35_1_34_F_46| true)
(= |memory_model::choice_rf_2_35_3_14_F_47| false)
(= |memory_model::choice_rf_3_13_0_12_F_48| true)
(= |memory_model::choice_rf_3_13_1_34_F_49| false)
(= |memory_model::choice_rf_3_13_2_36_F_50| false)
(= |memory_model::choice_rf_0_84_0_13_F_51| false)
(= |memory_model::choice_rf_0_84_1_1_F_52| true)
(= |memory_model::choice_rf_0_86_0_14_F_53| true)
(= |memory_model::choice_rf_0_86_2_10_F_54| false)
(= |memory_model::choice_rf_0_88_0_25_F_55| false)
(= |memory_model::choice_rf_0_88_2_12_F_56| true)
(= |memory_model::choice_rf_0_70_0_31_F_57| false)
(= |memory_model::choice_rf_0_70_0_69_F_58| true)
(= |memory_model::choice_rf_0_83_0_32_F_59| false)
(= |memory_model::choice_rf_0_93_0_32_F_60| false)
(= |memory_model::choice_rf_0_93_0_90_F_61| true)
(= |memory_model::choice_rf_0_94_0_32_F_62| false)
(= |memory_model::choice_rf_0_94_0_90_F_63| true)
(= |memory_model::choice_rf_0_76_0_39_F_64| true)
(= |memory_model::choice_rf_1_8_0_39_F_65| true)
(= |memory_model::choice_rf_1_8_0_79_F_66| false)
(= |memory_model::choice_rf_1_5_0_40_F_67| true)
(= |memory_model::choice_rf_1_26_0_40_F_68| false)
(= |memory_model::choice_rf_1_26_1_12_F_69| true)
(= |memory_model::choice_rf_1_3_0_41_F_70| false)
(= |memory_model::choice_rf_1_3_2_19_F_71| false)
(= |memory_model::choice_rf_1_3_2_31_F_72| true)
(= |memory_model::choice_rf_2_4_0_41_F_73| true)
(= |memory_model::choice_rf_2_28_0_41_F_74| false)
(= |memory_model::choice_rf_2_28_2_19_F_75| true)
(= |memory_model::choice_rf_1_6_0_42_F_76| false)
(= |memory_model::choice_rf_1_6_3_9_F_77| true)
(= |memory_model::choice_rf_3_5_0_42_F_78| true)
(= |memory_model::choice_rf_0_75_0_43_F_79| false)
(= |memory_model::choice_rf_0_75_1_15_F_80| true)
(= |memory_model::choice_rf_1_7_0_43_F_81| false)
(= |memory_model::choice_rf_1_7_0_78_F_82| false)
(= |memory_model::choice_rf_1_4_0_44_F_83| false)
(= |memory_model::choice_rf_1_25_0_44_F_84| false)
(= |memory_model::choice_rf_1_25_1_14_F_85| true)
(= |memory_model::choice_rf_1_2_0_45_F_86| false)
(= |memory_model::choice_rf_1_2_2_21_F_87| false)
(= |memory_model::choice_rf_1_2_2_30_F_88| false)
(= |memory_model::choice_rf_2_3_0_45_F_89| true)
(= |memory_model::choice_rf_2_3_1_13_F_90| false)
(= |memory_model::choice_rf_2_27_0_45_F_91| false)
(= |memory_model::choice_rf_2_27_1_13_F_92| false)
(= |memory_model::choice_rf_2_27_2_21_F_93| true)
(= |memory_model::choice_rf_1_9_0_46_F_94| false)
(= |memory_model::choice_rf_1_9_3_8_F_95| false)
(= |memory_model::choice_rf_3_6_0_46_F_96| true)
(= |memory_model::choice_rf_3_6_1_16_F_97| false)
(= |memory_model::choice_rf_0_74_0_49_F_98| false)
(= |memory_model::choice_rf_0_74_1_19_F_99| true)
(= |memory_model::choice_rf_0_74_2_16_F_100| false)
(= |memory_model::choice_rf_1_11_0_49_F_101| false)
(= |memory_model::choice_rf_1_11_2_16_F_102| true)
(= |memory_model::choice_rf_1_24_0_49_F_103| false)
(= |memory_model::choice_rf_1_24_1_19_F_104| true)
(= |memory_model::choice_rf_1_24_2_16_F_105| false)
(= |memory_model::choice_rf_2_2_0_49_F_106| true)
(= |memory_model::choice_rf_2_2_1_19_F_107| false)
(= |memory_model::choice_rf_2_26_0_49_F_108| false)
(= |memory_model::choice_rf_2_26_1_19_F_109| false)
(= |memory_model::choice_rf_2_26_2_16_F_110| true)
(= |memory_model::choice_rf_3_4_0_49_F_111| false)
(= |memory_model::choice_rf_3_4_1_19_F_112| false)
(= |memory_model::choice_rf_3_4_2_16_F_113| true)
(= |memory_model::choice_rf_0_77_0_50_F_114| false)
(= |memory_model::choice_rf_0_77_1_17_F_115| false)
(= |memory_model::choice_rf_0_77_1_31_F_116| true)
(= |memory_model::choice_rf_0_77_2_17_F_117| false)
(= |memory_model::choice_rf_0_77_2_33_F_118| false)
(= |memory_model::choice_rf_0_77_3_11_F_119| false)
(= |memory_model::choice_rf_1_10_0_50_F_120| false)
(= |memory_model::choice_rf_1_10_0_81_F_121| false)
(= |memory_model::choice_rf_1_10_2_17_F_122| false)
(= |memory_model::choice_rf_1_10_2_33_F_123| true)
(= |memory_model::choice_rf_1_10_3_11_F_124| false)
(= |memory_model::choice_rf_1_27_0_50_F_125| false)
(= |memory_model::choice_rf_1_27_0_81_F_126| false)
(= |memory_model::choice_rf_1_27_1_17_F_127| true)
(= |memory_model::choice_rf_1_27_2_17_F_128| false)
(= |memory_model::choice_rf_1_27_2_33_F_129| false)
(= |memory_model::choice_rf_1_27_3_11_F_130| false)
(= |memory_model::choice_rf_2_5_0_50_F_131| true)
(= |memory_model::choice_rf_2_5_0_81_F_132| false)
(= |memory_model::choice_rf_2_5_1_17_F_133| false)
(= |memory_model::choice_rf_2_5_1_31_F_134| false)
(= |memory_model::choice_rf_2_5_3_11_F_135| false)
(= |memory_model::choice_rf_2_29_0_50_F_136| false)
(= |memory_model::choice_rf_2_29_0_81_F_137| false)
(= |memory_model::choice_rf_2_29_1_17_F_138| false)
(= |memory_model::choice_rf_2_29_1_31_F_139| false)
(= |memory_model::choice_rf_2_29_2_17_F_140| false)
(= |memory_model::choice_rf_2_29_3_11_F_141| true)
(= |memory_model::choice_rf_3_7_0_50_F_142| false)
(= |memory_model::choice_rf_3_7_0_81_F_143| false)
(= |memory_model::choice_rf_3_7_1_17_F_144| false)
(= |memory_model::choice_rf_3_7_1_31_F_145| false)
(= |memory_model::choice_rf_3_7_2_17_F_146| true)
(= |memory_model::choice_rf_3_7_2_33_F_147| false)
(= |memory_model::choice_rf_0_72_0_51_F_148| false)
(= |memory_model::choice_rf_0_72_1_20_F_149| true)
(= |memory_model::choice_rf_0_72_2_11_F_150| false)
(= |memory_model::choice_rf_1_22_0_51_F_151| false)
(= |memory_model::choice_rf_1_22_1_20_F_152| true)
(= |memory_model::choice_rf_1_22_2_11_F_153| false)
(= |memory_model::choice_rf_2_0_0_51_F_154| true)
(= |memory_model::choice_rf_2_0_1_20_F_155| false)
(= |memory_model::choice_rf_2_24_0_51_F_156| false)
(= |memory_model::choice_rf_2_24_1_20_F_157| false)
(= |memory_model::choice_rf_2_24_2_11_F_158| true)
(= |memory_model::choice_rf_3_2_0_51_F_159| false)
(= |memory_model::choice_rf_3_2_1_20_F_160| false)
(= |memory_model::choice_rf_3_2_2_11_F_161| true)
(= |memory_model::choice_rf_0_73_0_52_F_162| false)
(= |memory_model::choice_rf_0_73_1_18_F_163| false)
(= |memory_model::choice_rf_0_73_1_30_F_164| true)
(= |memory_model::choice_rf_0_73_2_18_F_165| false)
(= |memory_model::choice_rf_0_73_2_32_F_166| false)
(= |memory_model::choice_rf_0_73_3_10_F_167| false)
(= |memory_model::choice_rf_1_23_0_52_F_168| false)
(= |memory_model::choice_rf_1_23_0_80_F_169| false)
(= |memory_model::choice_rf_1_23_1_18_F_170| true)
(= |memory_model::choice_rf_1_23_2_18_F_171| false)
(= |memory_model::choice_rf_1_23_2_32_F_172| false)
(= |memory_model::choice_rf_1_23_3_10_F_173| false)
(= |memory_model::choice_rf_2_1_0_52_F_174| true)
(= |memory_model::choice_rf_2_1_0_80_F_175| false)
(= |memory_model::choice_rf_2_1_1_18_F_176| false)
(= |memory_model::choice_rf_2_1_1_30_F_177| false)
(= |memory_model::choice_rf_2_1_3_10_F_178| false)
(= |memory_model::choice_rf_2_25_0_52_F_179| false)
(= |memory_model::choice_rf_2_25_0_80_F_180| false)
(= |memory_model::choice_rf_2_25_1_18_F_181| false)
(= |memory_model::choice_rf_2_25_1_30_F_182| false)
(= |memory_model::choice_rf_2_25_2_18_F_183| false)
(= |memory_model::choice_rf_2_25_3_10_F_184| true)
(= |memory_model::choice_rf_3_3_0_52_F_185| false)
(= |memory_model::choice_rf_3_3_0_80_F_186| false)
(= |memory_model::choice_rf_3_3_1_18_F_187| false)
(= |memory_model::choice_rf_3_3_1_30_F_188| false)
(= |memory_model::choice_rf_3_3_2_18_F_189| true)
(= |memory_model::choice_rf_3_3_2_32_F_190| false)
(= |memory_model::choice_rf_0_85_0_53_F_191| false)
(= |memory_model::choice_rf_0_85_2_22_F_192| false)
(= |memory_model::choice_rf_0_85_3_0_F_193| true)
(= |memory_model::choice_rf_1_0_0_53_F_194| false)
(= |memory_model::choice_rf_1_0_2_22_F_195| false)
(= |memory_model::choice_rf_1_0_3_0_F_196| true)
(= |memory_model::choice_rf_0_89_0_34_F_197| false)
(= |memory_model::choice_rf_0_89_2_9_F_198| false)
(= |memory_model::choice_rf_0_87_0_2_F_199| true)
(= |memory_model::choice_ws-ext_0_11_1_36_T_200| true)
(= |memory_model::choice_ws-ext_0_11_2_38_T_201| true)
(= |memory_model::choice_ws-ext_0_11_3_16_T_202| true)
(= |memory_model::choice_ws-ext_1_36_2_38_T_203| false)
(= |memory_model::choice_ws-ext_1_36_3_16_T_204| false)
(= |memory_model::choice_ws-ext_2_38_3_16_T_205| false)
(= |memory_model::choice_ws-ext_0_36_1_32_F_206| true)
(= |memory_model::choice_ws-ext_0_36_2_14_F_207| true)
(= |memory_model::choice_ws-ext_0_36_2_34_F_208| true)
(= |memory_model::choice_ws-ext_0_36_3_12_F_209| true)
(= |memory_model::choice_ws-ext_0_82_1_32_F_210| false)
(= |memory_model::choice_ws-ext_0_82_2_14_F_211| false)
(= |memory_model::choice_ws-ext_0_82_2_34_F_212| false)
(= |memory_model::choice_ws-ext_0_82_3_12_F_213| false)
(= |memory_model::choice_ws-ext_1_32_2_14_F_214| false)
(= |memory_model::choice_ws-ext_1_32_2_34_F_215| false)
(= |memory_model::choice_ws-ext_1_32_3_12_F_216| false)
(= |memory_model::choice_ws-ext_2_14_3_12_F_217| true)
(= |memory_model::choice_ws-ext_2_34_3_12_F_218| false)
(= |memory_model::choice_ws-ext_0_12_1_34_F_219| true)
(= |memory_model::choice_ws-ext_0_12_2_36_F_220| true)
(= |memory_model::choice_ws-ext_0_12_3_14_F_221| true)
(= |memory_model::choice_ws-ext_1_34_2_36_F_222| true)
(= |memory_model::choice_ws-ext_1_34_3_14_F_223| false)
(= |memory_model::choice_ws-ext_2_36_3_14_F_224| false)
(= |memory_model::choice_ws-ext_0_13_1_1_F_225| true)
(= |memory_model::choice_ws-ext_0_14_2_10_F_226| true)
(= |memory_model::choice_ws-ext_0_91_2_10_F_227| false)
(= |memory_model::choice_ws-ext_0_25_2_12_F_228| true)
(= |memory_model::choice_ws-ext_0_26_2_7_F_229| true)
(= |memory_model::choice_ws-ext_0_37_2_13_F_230| true)
(= |memory_model::choice_ws-ext_0_38_2_15_F_231| true)
(= |memory_model::choice_ws-ext_0_40_1_12_F_232| true)
(= |memory_model::choice_ws-ext_0_40_1_29_F_233| true)
(= |memory_model::choice_ws-ext_0_41_2_19_F_234| true)
(= |memory_model::choice_ws-ext_0_41_2_31_F_235| true)
(= |memory_model::choice_ws-ext_0_42_3_9_F_236| true)
(= |memory_model::choice_ws-ext_0_43_1_15_F_237| true)
(= |memory_model::choice_ws-ext_0_78_1_15_F_238| false)
(= |memory_model::choice_ws-ext_0_44_1_14_F_239| true)
(= |memory_model::choice_ws-ext_0_44_1_28_F_240| true)
(= |memory_model::choice_ws-ext_0_45_1_13_F_241| true)
(= |memory_model::choice_ws-ext_0_45_2_21_F_242| true)
(= |memory_model::choice_ws-ext_0_45_2_30_F_243| true)
(= |memory_model::choice_ws-ext_1_13_2_21_F_244| false)
(= |memory_model::choice_ws-ext_1_13_2_30_F_245| false)
(= |memory_model::choice_ws-ext_0_46_1_16_F_246| true)
(= |memory_model::choice_ws-ext_0_46_3_8_F_247| true)
(= |memory_model::choice_ws-ext_1_16_3_8_F_248| false)
(= |memory_model::choice_ws-ext_0_49_1_19_F_249| true)
(= |memory_model::choice_ws-ext_0_49_2_16_F_250| true)
(= |memory_model::choice_ws-ext_1_19_2_16_F_251| false)
(= |memory_model::choice_ws-ext_0_50_1_17_F_252| true)
(= |memory_model::choice_ws-ext_0_50_1_31_F_253| true)
(= |memory_model::choice_ws-ext_0_50_2_17_F_254| true)
(= |memory_model::choice_ws-ext_0_50_2_33_F_255| true)
(= |memory_model::choice_ws-ext_0_50_3_11_F_256| true)
(= |memory_model::choice_ws-ext_0_81_1_17_F_257| false)
(= |memory_model::choice_ws-ext_0_81_1_31_F_258| false)
(= |memory_model::choice_ws-ext_0_81_2_17_F_259| false)
(= |memory_model::choice_ws-ext_0_81_2_33_F_260| false)
(= |memory_model::choice_ws-ext_0_81_3_11_F_261| false)
(= |memory_model::choice_ws-ext_1_17_2_17_F_262| false)
(= |memory_model::choice_ws-ext_1_17_2_33_F_263| false)
(= |memory_model::choice_ws-ext_1_17_3_11_F_264| false)
(= |memory_model::choice_ws-ext_1_31_2_17_F_265| false)
(= |memory_model::choice_ws-ext_1_31_2_33_F_266| false)
(= |memory_model::choice_ws-ext_1_31_3_11_F_267| false)
(= |memory_model::choice_ws-ext_2_17_3_11_F_268| true)
(= |memory_model::choice_ws-ext_2_33_3_11_F_269| false)
(= |memory_model::choice_ws-ext_0_51_1_20_F_270| true)
(= |memory_model::choice_ws-ext_0_51_2_11_F_271| true)
(= |memory_model::choice_ws-ext_1_20_2_11_F_272| false)
(= |memory_model::choice_ws-ext_0_52_1_18_F_273| true)
(= |memory_model::choice_ws-ext_0_52_1_30_F_274| true)
(= |memory_model::choice_ws-ext_0_52_2_18_F_275| true)
(= |memory_model::choice_ws-ext_0_52_2_32_F_276| true)
(= |memory_model::choice_ws-ext_0_52_3_10_F_277| true)
(= |memory_model::choice_ws-ext_0_80_1_18_F_278| false)
(= |memory_model::choice_ws-ext_0_80_1_30_F_279| false)
(= |memory_model::choice_ws-ext_0_80_2_18_F_280| false)
(= |memory_model::choice_ws-ext_0_80_2_32_F_281| false)
(= |memory_model::choice_ws-ext_0_80_3_10_F_282| false)
(= |memory_model::choice_ws-ext_1_18_2_18_F_283| false)
(= |memory_model::choice_ws-ext_1_18_2_32_F_284| false)
(= |memory_model::choice_ws-ext_1_18_3_10_F_285| false)
(= |memory_model::choice_ws-ext_1_30_2_18_F_286| false)
(= |memory_model::choice_ws-ext_1_30_2_32_F_287| false)
(= |memory_model::choice_ws-ext_1_30_3_10_F_288| false)
(= |memory_model::choice_ws-ext_2_18_3_10_F_289| true)
(= |memory_model::choice_ws-ext_2_32_3_10_F_290| false)
(= |memory_model::choice_ws-ext_0_53_2_22_F_291| true)
(= |memory_model::choice_ws-ext_0_53_3_0_F_292| true)
(= |memory_model::choice_ws-ext_2_22_3_0_F_293| true)
(= |memory_model::choice_ws-ext_0_33_2_8_F_294| true)
(= |memory_model::choice_ws-ext_0_34_2_9_F_295| true)
(= |memory_model::choice_ws-ext_0_92_2_9_F_296| false)
(= |memory_model::choice_ws-ext_0_35_2_20_F_297| true)
(= |main$tmp_guard0#3| #b00000001)
(= |__CPROVER_next_thread_id#3| #b00000000000000000000000000000001)
(= |__CPROVER_next_thread_id#6| #b00000000000000000000000000000010)
(= |__unbuffered_cnt#2| #b00000000000000000000000000000011)
(= |x$w_buff0_used#2| #b00000000)
(= |x$r_buff0_thd0#2| #b00000000)
(= |x$w_buff0#2| #b00000000000000000000000000000001)
(= |x$w_buff1_used#2| #b00000000)
(= |x$r_buff1_thd0#2| #b00000000)
(= |x$w_buff1#2| #b00000000000000000000000000000000)
(= |x#2| #b00000000000000000000000000000001)
(= |x#4| #b00000000000000000000000000000001)
(= |x$w_buff0_used#6| #b00000000)
(= |x$w_buff1_used#6| #b00000000)
(= |x$r_buff0_thd0#8| #b00000000)
(= |x$r_buff1_thd0#7| #b00000000)
(= |nondet_symex::nondet0| #b10000000000000000000000000000000)
(= |weak$$choice1#2| #b00000001)
(= |weak$$choice1#3| #b10000000)
(= |__unbuffered_p1_EAX$read_delayed#2| #b00000001)
(= |__unbuffered_p1_EAX$read_delayed_var$object#1| #b00000000000000000000000000000001)
(= |__unbuffered_p1_EAX#2| #b00000000000000000000000000000000)
(= |__unbuffered_p1_EAX#8| #b00000000000000000000000000000001)
(= |y#2| #b00000000000000000000000000000010)
(= |__unbuffered_p0_EAX#2| #b00000000000000000000000000000010)
(= |main$tmp_guard1#2| #b00000000)
(= |main$tmp_guard1#3| #b10000000)
(= |main$tmp_guard1#6| #b00000000)
(= |pthread_create::1::this_thread_id!1@0#0| #b10000000000000000000000000000000)
(= |y#4| #b00000000000000000000000000000010)
(= |x$w_buff0#4| #b00000000000000000000000000000000)
(= |x$w_buff0_used#11| #b00000000)
(= |x$r_buff0_thd0#11| #b00000000)
(= |x$r_buff1_thd0#9| #b00000000)
(= |x$r_buff1_thd0#10| #b10000000)
(= |x$r_buff0_thd1#2| #b00000000)
(= |x$r_buff1_thd1#2| #b00000000)
(= |x$r_buff1_thd1#3| #b10000000)
(= |x$r_buff0_thd2#2| #b00000000)
(= |x$r_buff1_thd2#2| #b00000000)
(= |x$r_buff1_thd2#3| #b10000000)
(= |x$r_buff0_thd3#2| #b00000000)
(= |x$r_buff1_thd3#2| #b00000000)
(= |x$r_buff1_thd3#3| #b10000000)
(= |x$r_buff0_thd1#4| #b00000001)
(= |x$w_buff0_used#14| #b00000001)
(= |x$r_buff0_thd1#6| #b00000001)
(= |x$w_buff0#7| #b00000000000000000000000000000001)
(= |x$w_buff1_used#10| #b00000000)
(= |x$r_buff1_thd1#5| #b00000000)
(= |x$w_buff1#5| #b00000000000000000000000000000000)
(= |x#6| #b00000000000000000000000000000000)
(= |x#8| #b00000000000000000000000000000001)
(= |x$w_buff0_used#18| #b00000000)
(= |x$w_buff1_used#14| #b00000000)
(= |x$r_buff0_thd1#12| #b00000001)
(= |x$r_buff1_thd1#10| #b00000000)
(= |__unbuffered_cnt#4| #b00000000000000000000000000000001)
(= |__unbuffered_cnt#6| #b00000000000000000000000000000010)
(= |pthread_create::1::this_thread_id!2@0#0| #b00000000000000000000000000000000)
(= |nondet_symex::nondet2| #b00000000000000000000000000000000)
(= |nondet_symex::nondet3| #b00000000000000000000000000000000)
(= |x#10| #b00000000000000000000000000000000)
(= |nondet_symex::nondet4| #b00000000000000000000000000000000)
(= |x$w_buff0_used#23| #b00000000)
(= |x$r_buff0_thd2#4| #b00000000)
(= |x$w_buff0#9| #b00000000000000000000000000000000)
(= |x$r_buff1_thd2#5| #b00000000)
(= |x$w_buff1_used#17| #b00000000)
(= |x$w_buff1#7| #b00000000000000000000000000000000)
(= |x$w_buff0_used#26| #b00000000)
(= |x$r_buff0_thd2#7| #b00000000)
(= |x$w_buff0#12| #b00000000000000000000000000000000)
(= |x$w_buff1_used#20| #b00000000)
(= |x$r_buff1_thd2#8| #b00000000)
(= |x$w_buff1#10| #b00000000000000000000000000000000)
(= |x#14| #b00000000000000000000000000000000)
(= |__unbuffered_cnt#8| #b00000000000000000000000000000010)
(= |pthread_create::1::this_thread_id!3@0#0| #b00000000000000000000000000000000)
(= |x$w_buff0_used#29| #b00000000)
(= |x$r_buff0_thd3#4| #b00000000)
(= |x$w_buff0#14| #b00000000000000000000000000000000)
(= |x$w_buff1_used#23| #b00000000)
(= |x$r_buff1_thd3#5| #b00000000)
(= |x$w_buff1#12| #b00000000000000000000000000000000)
(= |x#17| #b00000000000000000000000000000000)
(= |__unbuffered_cnt#11| #b00000000000000000000000000000000)
(= |__CPROVER_threads_exited#1$wclk$8| #b00011000)
(= |__CPROVER_threads_exited#2$rclk$8| #b11111101)
(= |__CPROVER_threads_exited#5$wclk$8| #b11011111)
(= |__CPROVER_threads_exited#7$wclk$8| #b10111101)
(= |__CPROVER_threads_exited#4$rclk$8| #b10111111)
(= |__CPROVER_threads_exited#3$wclk$8| #b11111110)
(= |__CPROVER_threads_exited#6$rclk$8| #b10111100)
(= |x#9$wclk$8| #b10100000)
(= |x#2$rclk$8| #b11111010)
(= |x#13$wclk$8| #b01111111)
(= |x#16$wclk$8| #b10010000)
(= |x#19$wclk$8| #b10001001)
(= |x#1$wclk$8| #b01000110)
(= |x#6$rclk$8| #b10100000)
(= |x#5$wclk$8| #b11111010)
(= |x#10$rclk$8| #b01111111)
(= |x#14$rclk$8| #b10010000)
(= |x#17$rclk$8| #b10001001)
(= |__unbuffered_cnt#7$wclk$8| #b10111101)
(= |__unbuffered_cnt#2$rclk$8| #b11101110)
(= |__unbuffered_cnt#10$wclk$8| #b10111110)
(= |__unbuffered_cnt#13$wclk$8| #b10111011)
(= |__unbuffered_cnt#1$wclk$8| #b00011001)
(= |__unbuffered_cnt#4$rclk$8| #b10111101)
(= |__unbuffered_cnt#8$rclk$8| #b10111110)
(= |__unbuffered_cnt#11$rclk$8| #b10111011)
(= |__unbuffered_p0_EAX#4$wclk$8| #b10010000)
(= |__unbuffered_p0_EAX#2$rclk$8| #b11111011)
(= |__unbuffered_p1_EAX#11$wclk$8| #b01111111)
(= |__unbuffered_p1_EAX#2$rclk$8| #b11111011)
(= |__unbuffered_p1_EAX$read_delayed#4$wclk$8| #b01111111)
(= |__unbuffered_p1_EAX$read_delayed#2$rclk$8| #b11111011)
(= |main$tmp_guard1#5| #b00000000)
(= |x$r_buff0_thd0#1$wclk$8| #b01001001)
(= |x$r_buff0_thd0#11$rclk$8| #b10010001)
(= |x$r_buff0_thd0#10$wclk$8| #b11111010)
(= |x$r_buff0_thd1#1$wclk$8| #b01001010)
(= |x$r_buff0_thd1#2$rclk$8| #b10010001)
(= |x$r_buff0_thd1#6$rclk$8| #b10100000)
(= |x$r_buff0_thd2#1$wclk$8| #b01001011)
(= |x$r_buff0_thd2#2$rclk$8| #b10010001)
(= |x$r_buff0_thd2#6$wclk$8| #b01111111)
(= |x$r_buff0_thd2#9$wclk$8| #b10010000)
(= |x$r_buff0_thd2#4$rclk$8| #b01111111)
(= |x$r_buff0_thd2#7$rclk$8| #b10010000)
(= |x$r_buff0_thd3#1$wclk$8| #b01001100)
(= |x$r_buff0_thd3#2$rclk$8| #b10010001)
(= |x$r_buff0_thd3#6$wclk$8| #b10001001)
(= |x$r_buff0_thd3#4$rclk$8| #b10001001)
(= |x$r_buff1_thd0#11$wclk$8| #b10010001)
(= |x$r_buff1_thd0#2$rclk$8| #b11111010)
(= |x$r_buff1_thd0#1$wclk$8| #b01001101)
(= |x$r_buff1_thd0#10$rclk$8| #b10010001)
(= |x$r_buff1_thd0#8$wclk$8| #b11111010)
(= |x$r_buff1_thd1#1$wclk$8| #b01001110)
(= |x$r_buff1_thd1#3$rclk$8| #b10010001)
(= |x$r_buff1_thd1#5$rclk$8| #b10100000)
(= |x$r_buff1_thd2#1$wclk$8| #b01100111)
(= |x$r_buff1_thd2#3$rclk$8| #b10010001)
(= |x$r_buff1_thd2#7$wclk$8| #b01111111)
(= |x$r_buff1_thd2#10$wclk$8| #b10010000)
(= |x$r_buff1_thd2#5$rclk$8| #b01111111)
(= |x$r_buff1_thd2#4$wclk$8| #b10010001)
(= |x$r_buff1_thd2#8$rclk$8| #b10010000)
(= |x$r_buff1_thd3#1$wclk$8| #b01101101)
(= |x$r_buff1_thd3#3$rclk$8| #b10010001)
(= |x$r_buff1_thd3#7$wclk$8| #b10001001)
(= |x$r_buff1_thd3#5$rclk$8| #b10001001)
(= |x$r_buff1_thd3#4$wclk$8| #b10010001)
(= |x$w_buff0#6$wclk$8| #b10010001)
(= |x$w_buff0#2$rclk$8| #b11111010)
(= |x$w_buff0#11$wclk$8| #b01111111)
(= |x$w_buff0#1$wclk$8| #b01110001)
(= |x$w_buff0#4$rclk$8| #b10010001)
(= |x$w_buff0#7$rclk$8| #b10100000)
(= |x$w_buff0#9$rclk$8| #b01111111)
(= |x$w_buff0#12$rclk$8| #b10010000)
(= |x$w_buff0#14$rclk$8| #b10001001)
(= |x$w_buff0_used#13$wclk$8| #b10010001)
(= |x$w_buff0_used#2$rclk$8| #b11111010)
(= |x$w_buff0_used#22$wclk$8| #b10100000)
(= |x$w_buff0_used#25$wclk$8| #b01111111)
(= |x$w_buff0_used#28$wclk$8| #b10010000)
(= |x$w_buff0_used#31$wclk$8| #b10001001)
(= |x$w_buff0_used#1$wclk$8| #b01110010)
(= |x$w_buff0_used#11$rclk$8| #b10010001)
(= |x$w_buff0_used#10$wclk$8| #b11111010)
(= |x$w_buff0_used#14$rclk$8| #b10100000)
(= |x$w_buff0_used#23$rclk$8| #b01111111)
(= |x$w_buff0_used#26$rclk$8| #b10010000)
(= |x$w_buff0_used#29$rclk$8| #b10001001)
(= |x$w_buff1#4$wclk$8| #b10010001)
(= |x$w_buff1#2$rclk$8| #b11111010)
(= |x$w_buff1#9$wclk$8| #b01111111)
(= |x$w_buff1#1$wclk$8| #b01110011)
(= |x$w_buff1#5$rclk$8| #b10100000)
(= |x$w_buff1#7$rclk$8| #b01111111)
(= |x$w_buff1#10$rclk$8| #b10010000)
(= |x$w_buff1#12$rclk$8| #b10001001)
(= |x$w_buff1_used#9$wclk$8| #b10010001)
(= |x$w_buff1_used#2$rclk$8| #b11111010)
(= |x$w_buff1_used#16$wclk$8| #b10100000)
(= |x$w_buff1_used#19$wclk$8| #b01111111)
(= |x$w_buff1_used#22$wclk$8| #b10010000)
(= |x$w_buff1_used#25$wclk$8| #b10001001)
(= |x$w_buff1_used#1$wclk$8| #b01110100)
(= |x$w_buff1_used#10$rclk$8| #b10100000)
(= |x$w_buff1_used#8$wclk$8| #b11111010)
(= |x$w_buff1_used#17$rclk$8| #b01111111)
(= |x$w_buff1_used#20$rclk$8| #b10010000)
(= |x$w_buff1_used#23$rclk$8| #b10001001)
(= |y#6$wclk$8| #b10000101)
(= |y#2$rclk$8| #b11111011)
(= |y#7$wclk$8| #b10001000)
(= |y#1$wclk$8| #b01110101)
(= |y#4$rclk$8| #b10010000)
(= |weak$$choice1#8$wclk$8| #b01111111)
(= |weak$$choice1#3$rclk$8| #b11111011)
(= __unbuffered_p1_EAX$read_delayed_var$object #b00000000000000000000000000000001)
(= |__unbuffered_p0_EAX#1$wclk$8| #b00011010)
(= |__unbuffered_p1_EAX#1$wclk$8| #b00011011)
(= |__unbuffered_p1_EAX#10$wclk$8| #b11111011)
(= |__unbuffered_p1_EAX$read_delayed#1$wclk$8| #b00111000)
(= |__unbuffered_p1_EAX$read_delayed_var#1$wclk$8| #b00111001)
(= |__unbuffered_p1_EAX$read_delayed_var#2$wclk$8| #b01111111)
(= |x$flush_delayed#1$wclk$8| #b01000111)
(= |x$flush_delayed#3$wclk$8| #b01111111)
(= |x$mem_tmp#1$wclk$8| #b01001000)
(= |x$mem_tmp#2$wclk$8| #b01111111)
(= |x$r_buff0_thd1#5$wclk$8| #b10010001)
(= |x$r_buff0_thd1#14$wclk$8| #b10100000)
(= |x$r_buff1_thd1#4$wclk$8| #b10010001)
(= |x$r_buff1_thd1#11$wclk$8| #b10100000)
(= |weak$$choice0#1$wclk$8| #b01000000)
(= |weak$$choice0#2$wclk$8| #b01111111)
(= |weak$$choice1#1$wclk$8| #b01000001)
(= |weak$$choice1#7$wclk$8| #b11111011)
(= |weak$$choice2#1$wclk$8| #b01000010)
(= |weak$$choice2#2$wclk$8| #b01111111)
(= t1$57$spwnclk$8 #b01111001)
(= t1$62$spwnclk$8 #b01111110)
(= t1$67$spwnclk$8 #b10000100)
(= |main::1::t1991!0@1$wclk$8| #b00000000)
(= |main::1::t1992!0@1$wclk$8| #b00000001)
(= __unbuffered_p1_EAX$read_delayed_var$object$wclk$8 #b00000010)
(= |__CPROVER_dead_object#1$wclk$8| #b00000011)
(= |__CPROVER_deallocated#1$wclk$8| #b00000100)
(= |__CPROVER_malloc_is_new_array#1$wclk$8| #b00000101)
(= |__CPROVER_malloc_object#1$wclk$8| #b00000110)
(= |__CPROVER_malloc_size#1$wclk$8| #b00000111)
(= |__CPROVER_memory_leak#1$wclk$8| #b00001000)
(= |__CPROVER_next_thread_id#1$wclk$8| #b00001001)
(= |__CPROVER_pipe_count#1$wclk$8| #b00001010)
(= |__unbuffered_p1_EAX$flush_delayed#1$wclk$8| #b00101110)
(= |__unbuffered_p1_EAX$mem_tmp#1$wclk$8| #b00101111)
(= |__unbuffered_p1_EAX$r_buff0_thd0#1$wclk$8| #b00110000)
(= |__unbuffered_p1_EAX$r_buff0_thd1#1$wclk$8| #b00110001)
(= |__unbuffered_p1_EAX$r_buff0_thd2#1$wclk$8| #b00110010)
(= |__unbuffered_p1_EAX$r_buff0_thd3#1$wclk$8| #b00110011)
(= |__unbuffered_p1_EAX$r_buff1_thd0#1$wclk$8| #b00110100)
(= |__unbuffered_p1_EAX$r_buff1_thd1#1$wclk$8| #b00110101)
(= |__unbuffered_p1_EAX$r_buff1_thd2#1$wclk$8| #b00110110)
(= |__unbuffered_p1_EAX$r_buff1_thd3#1$wclk$8| #b00110111)
(= |__unbuffered_p1_EAX$w_buff0#1$wclk$8| #b00111010)
(= |__unbuffered_p1_EAX$w_buff0_used#1$wclk$8| #b00111011)
(= |__unbuffered_p1_EAX$w_buff1#1$wclk$8| #b00111100)
(= |__unbuffered_p1_EAX$w_buff1_used#1$wclk$8| #b00111101)
(= |main$tmp_guard0#1$wclk$8| #b00111110)
(= |main$tmp_guard1#1$wclk$8| #b00111111)
(= |x$read_delayed#1$wclk$8| #b01101110)
(= |x$read_delayed_var#1$wclk$8| #b01110000)
(= |main::1::t1990!0@1#1$wclk$8| #b01110110)
(= |__CPROVER_next_thread_id#2$wclk$8| #b01110111)
(= |main::1::t1990!0@1#2$wclk$8| #b01111000)
(= |main::1::t1991!0@1#1$wclk$8| #b01111010)
(= |__CPROVER_next_thread_id#3$rclk$8| #b01111100)
(= |__CPROVER_next_thread_id#5$wclk$8| #b01111100)
(= |main::1::t1991!0@1#2$wclk$8| #b01111101)
(= |main::1::t1992!0@1#1$wclk$8| #b10000000)
(= |__CPROVER_next_thread_id#6$rclk$8| #b10000001)
(= |__CPROVER_next_thread_id#8$wclk$8| #b10000001)
(= |main::1::t1992!0@1#2$wclk$8| #b10000010)
(= |main$tmp_guard0#2$wclk$8| #b11101110)
(= |main$tmp_guard0#3$rclk$8| #b11111001)
(= |x$r_buff0_thd0#2$rclk$8| #b11111010)
(= |main$tmp_guard1#3$rclk$8| #b11111011)
(= |__unbuffered_p1_EAX$read_delayed_var$object#1$rclk$8| #b11111011)
(= |main$tmp_guard1#4$wclk$8| #b11111011)
(= |main$tmp_guard1#5$rclk$8| #b11111110)
(= |main$tmp_guard1#6$rclk$8| #b11111111)
(= array_of.0 @fun_11)
(= |__CPROVER_threads_exited#2| @fun_9)
(= |__CPROVER_threads_exited#4| @fun_9)
(= |__CPROVER_threads_exited#6| @fun_11)
(function @fun_11
 (type (Array (_ BitVec 32) (_ BitVec 1)))
 (= (@fun_11 #b00000000000000000000000000000000) #b0)
 (default #b1))
(function @fun_9
 (type (Array (_ BitVec 32) (_ BitVec 1)))
 (default #b1))

real	0m0.025s
user	0m0.022s
sys	0m0.003s
State: AC Run_time: 0.027430057525634766